0 1
0 2
0 3
0 4
0 5
0 6
0 7
0 8
0 9
0 10
0 12
0 13
0 14
0 15
0 16
0 17
0 18
0 19
0 20
0 21
0 23
0 24
0 25
0 26
0 27
0 28
0 29
0 30
0 31
0 32
0 33
0 34
0 35
0 36
0 37
0 40
0 41
0 42
0 43
0 44
0 45
0 46
0 48
0 67
0 100
0 104
0 113
0 127
0 129
0 140
0 154
0 164
0 182
0 201
0 241
0 283
0 354
0 373
0 408
0 498
0 512
0 536
1 2
1 3
1 4
1 5
1 6
1 7
1 8
1 9
1 10
1 12
1 13
1 14
1 15
1 16
1 17
1 18
1 19
1 20
1 21
1 23
1 24
1 25
1 26
1 27
1 28
1 29
1 30
1 31
1 32
1 33
1 34
1 35
1 36
1 37
1 40
1 41
1 42
1 43
1 44
1 45
1 48
1 67
1 118
1 141
1 244
1 260
1 363
1 447
1 703
1 719
2 3
2 4
2 5
2 6
2 7
2 8
2 9
2 10
2 12
2 13
2 14
2 15
2 16
2 17
2 18
2 19
2 20
2 21
2 23
2 24
2 25
2 26
2 27
2 28
2 29
2 30
2 31
2 32
2 33
2 34
2 35
2 36
2 37
2 40
2 41
2 42
2 43
2 45
2 46
2 48
2 100
2 104
2 113
2 129
2 140
2 183
2 209
2 241
2 283
2 354
2 373
2 498
2 816
2 882
3 4
3 5
3 6
3 7
3 8
3 9
3 10
3 12
3 13
3 14
3 15
3 16
3 17
3 18
3 19
3 20
3 21
3 23
3 24
3 25
3 26
3 27
3 28
3 29
3 30
3 31
3 32
3 33
3 34
3 35
3 36
3 37
3 40
3 41
3 42
3 43
3 44
3 45
3 46
3 48
3 67
3 72
3 121
3 153
3 154
3 173
3 185
3 222
3 283
3 341
3 374
3 380
3 541
3 624
4 5
4 6
4 7
4 8
4 9
4 10
4 12
4 13
4 14
4 15
4 16
4 17
4 18
4 19
4 20
4 21
4 23
4 24
4 25
4 26
4 27
4 28
4 29
4 30
4 31
4 32
4 33
4 34
4 35
4 36
4 37
4 40
4 41
4 42
4 43
4 44
4 45
4 46
4 48
4 67
4 173
4 235
4 260
4 266
4 277
4 359
4 372
4 383
4 562
4 569
5 6
5 7
5 8
5 9
5 10
5 12
5 13
5 14
5 15
5 16
5 17
5 18
5 19
5 20
5 21
5 23
5 24
5 25
5 26
5 27
5 28
5 29
5 30
5 31
5 32
5 33
5 34
5 35
5 36
5 37
5 40
5 41
5 42
5 43
5 44
5 45
5 48
5 67
5 96
5 99
5 112
5 147
5 196
5 244
5 281
5 305
5 309
5 320
5 499
6 7
6 8
6 9
6 10
6 12
6 13
6 14
6 15
6 16
6 17
6 18
6 19
6 20
6 21
6 23
6 24
6 25
6 26
6 27
6 28
6 29
6 30
6 31
6 32
6 33
6 34
6 35
6 36
6 37
6 39
6 40
6 41
6 42
6 43
6 44
6 45
6 48
6 67
6 100
6 104
6 111
6 113
6 121
6 129
6 153
6 164
6 182
6 313
6 374
6 515
6 624
6 635
6 662
6 670
7 8
7 9
7 10
7 12
7 13
7 14
7 15
7 16
7 17
7 18
7 19
7 20
7 21
7 23
7 24
7 25
7 26
7 27
7 28
7 29
7 30
7 31
7 32
7 33
7 34
7 35
7 36
7 37
7 40
7 41
7 42
7 43
7 44
7 45
7 46
7 48
7 67
7 104
7 113
7 127
7 129
7 154
7 164
7 173
7 182
7 201
8 9
8 10
8 12
8 13
8 14
8 15
8 16
8 17
8 18
8 19
8 20
8 21
8 23
8 24
8 25
8 26
8 27
8 28
8 29
8 30
8 31
8 32
8 33
8 34
8 35
8 36
8 37
8 40
8 41
8 42
8 43
8 44
8 45
8 48
8 67
8 100
8 113
8 140
8 141
8 241
8 244
8 345
8 792
9 10
9 12
9 13
9 14
9 15
9 16
9 17
9 18
9 19
9 20
9 21
9 23
9 24
9 25
9 26
9 27
9 28
9 29
9 30
9 31
9 32
9 33
9 34
9 35
9 36
9 37
9 40
9 41
9 42
9 43
9 44
9 45
9 46
9 48
9 67
9 154
9 173
9 185
9 187
9 266
9 277
9 359
9 372
9 383
10 12
10 13
10 14
10 15
10 16
10 17
10 18
10 19
10 20
10 21
10 23
10 24
10 25
10 26
10 27
10 28
10 29
10 30
10 31
10 32
10 33
10 34
10 35
10 36
10 37
10 40
10 41
10 42
10 43
10 44
10 45
10 48
10 67
10 104
10 113
10 129
10 140
10 164
10 498
11 22
11 47
11 49
11 50
11 51
11 52
11 53
11 54
11 55
11 56
11 57
11 58
11 59
11 60
11 61
11 62
11 63
11 64
11 65
11 66
11 68
11 69
11 70
11 71
11 73
11 74
11 76
11 77
11 78
11 80
11 82
11 83
11 84
11 85
11 86
11 87
11 92
11 93
11 94
11 95
11 97
11 110
11 139
11 212
11 242
11 250
11 263
11 384
11 387
11 398
11 437
11 451
11 471
11 737
12 13
12 14
12 15
12 16
12 17
12 18
12 19
12 20
12 21
12 23
12 24
12 25
12 26
12 27
12 28
12 29
12 30
12 31
12 32
12 33
12 34
12 35
12 36
12 37
12 40
12 41
12 42
12 43
12 44
12 45
12 46
12 48
12 67
12 117
12 173
12 527
12 568
12 925
13 14
13 15
13 16
13 17
13 18
13 19
13 20
13 21
13 23
13 24
13 25
13 26
13 27
13 28
13 29
13 30
13 31
13 32
13 33
13 34
13 35
13 36
13 37
13 40
13 41
13 42
13 43
13 44
13 45
13 46
13 48
13 67
13 107
13 173
13 527
13 568
13 606
14 15
14 16
14 17
14 18
14 19
14 20
14 21
14 23
14 24
14 25
14 26
14 27
14 28
14 29
14 30
14 31
14 32
14 33
14 34
14 35
14 36
14 37
14 40
14 41
14 42
14 43
14 44
14 45
14 46
14 48
14 67
14 173
14 527
14 568
14 606
15 16
15 17
15 18
15 19
15 20
15 21
15 23
15 24
15 25
15 26
15 27
15 28
15 29
15 30
15 31
15 32
15 33
15 34
15 35
15 36
15 37
15 40
15 41
15 42
15 43
15 44
15 45
15 48
15 67
15 141
15 447
15 703
15 719
16 17
16 18
16 19
16 20
16 21
16 23
16 24
16 25
16 26
16 27
16 28
16 29
16 30
16 31
16 32
16 33
16 34
16 35
16 36
16 37
16 40
16 41
16 42
16 43
16 44
16 45
16 46
16 48
16 67
16 140
16 498
17 18
17 19
17 20
17 21
17 23
17 24
17 25
17 26
17 27
17 28
17 29
17 30
17 31
17 32
17 33
17 34
17 35
17 36
17 37
17 40
17 41
17 42
17 43
17 44
17 45
17 48
17 67
17 173
17 266
17 476
17 591
17 698
18 19
18 20
18 21
18 23
18 24
18 25
18 26
18 27
18 28
18 29
18 30
18 31
18 32
18 33
18 34
18 35
18 36
18 37
18 40
18 41
18 42
18 43
18 44
18 45
18 48
18 67
18 79
18 96
19 20
19 21
19 23
19 24
19 25
19 26
19 27
19 28
19 29
19 30
19 31
19 32
19 33
19 34
19 35
19 36
19 37
19 40
19 41
19 42
19 43
19 44
19 45
19 48
19 67
19 202
19 382
19 578
20 21
20 23
20 24
20 25
20 26
20 27
20 28
20 29
20 30
20 31
20 32
20 33
20 34
20 35
20 36
20 37
20 40
20 41
20 42
20 43
20 44
20 45
20 48
20 67
20 104
20 129
21 23
21 24
21 25
21 26
21 27
21 28
21 29
21 30
21 31
21 32
21 33
21 34
21 35
21 36
21 37
21 40
21 41
21 42
21 43
21 44
21 45
21 48
21 67
21 131
21 209
22 47
22 49
22 50
22 51
22 52
22 53
22 54
22 55
22 56
22 57
22 58
22 59
22 60
22 61
22 62
22 63
22 64
22 65
22 66
22 68
22 69
22 70
22 71
22 73
22 74
22 76
22 77
22 78
22 80
22 82
22 83
22 84
22 85
22 86
22 87
22 92
22 93
22 94
22 95
22 97
22 110
22 407
22 443
22 472
22 490
23 24
23 25
23 26
23 27
23 28
23 29
23 30
23 31
23 32
23 33
23 34
23 35
23 36
23 37
23 40
23 41
23 42
23 43
23 44
23 45
23 48
23 67
23 140
23 283
23 498
24 25
24 26
24 27
24 28
24 29
24 30
24 31
24 32
24 33
24 34
24 35
24 36
24 37
24 40
24 41
24 42
24 43
24 44
24 45
24 46
24 48
25 26
25 27
25 28
25 29
25 30
25 31
25 32
25 33
25 34
25 35
25 36
25 37
25 40
25 41
25 42
25 43
25 44
25 45
25 48
25 67
26 27
26 28
26 29
26 30
26 31
26 32
26 33
26 34
26 35
26 36
26 37
26 40
26 41
26 42
26 43
26 44
26 45
26 48
26 67
26 353
27 28
27 29
27 30
27 31
27 32
27 33
27 34
27 35
27 36
27 37
27 40
27 41
27 42
27 43
27 44
27 45
27 48
27 67
28 29
28 30
28 31
28 32
28 33
28 34
28 35
28 36
28 37
28 40
28 41
28 42
28 43
28 44
28 45
28 48
28 67
28 107
28 527
29 30
29 31
29 32
29 33
29 34
29 35
29 36
29 37
29 40
29 41
29 42
29 43
29 44
29 45
29 48
29 67
30 31
30 32
30 33
30 34
30 35
30 36
30 37
30 40
30 41
30 42
30 43
30 44
30 45
30 48
30 67
30 527
30 568
31 32
31 33
31 34
31 35
31 36
31 37
31 40
31 41
31 42
31 43
31 44
31 45
31 48
31 67
31 476
32 33
32 34
32 35
32 36
32 37
32 40
32 41
32 42
32 43
32 44
32 45
32 48
32 67
33 34
33 35
33 36
33 37
33 40
33 41
33 42
33 43
33 44
33 45
33 48
33 67
34 35
34 36
34 37
34 40
34 41
34 42
34 43
34 44
34 45
34 48
34 67
35 36
35 37
35 40
35 41
35 42
35 43
35 44
35 45
35 48
35 67
36 37
36 40
36 41
36 42
36 43
36 44
36 45
36 48
36 67
37 40
37 41
37 42
37 43
37 44
37 45
37 48
37 67
38 79
38 116
38 137
38 144
38 150
38 158
38 183
38 186
38 192
38 237
38 262
38 278
38 284
38 322
38 377
38 447
38 548
38 567
38 726
38 787
38 877
38 976
39 98
39 111
39 114
39 116
39 123
39 137
39 144
39 181
39 218
39 240
39 249
39 289
39 297
39 313
39 389
39 497
39 521
39 555
39 579
39 587
39 635
39 942
39 945
40 41
40 42
40 43
40 44
40 45
40 48
40 67
41 42
41 43
41 44
41 45
41 48
41 67
42 43
42 44
42 45
42 48
42 67
43 44
43 45
43 48
43 67
44 45
44 67
45 48
45 67
46 121
46 152
46 153
46 173
46 175
46 197
46 201
46 222
46 283
46 300
46 341
46 602
47 49
47 50
47 51
47 52
47 53
47 54
47 55
47 56
47 57
47 58
47 59
47 60
47 61
47 62
47 63
47 64
47 65
47 66
47 68
47 69
47 70
47 71
47 73
47 74
47 76
47 77
47 78
47 80
47 82
47 83
47 84
47 85
47 86
47 87
47 92
47 93
47 94
47 95
47 97
47 110
49 50
49 51
49 52
49 53
49 54
49 55
49 56
49 57
49 58
49 59
49 60
49 61
49 62
49 63
49 64
49 65
49 66
49 68
49 69
49 70
49 71
49 73
49 74
49 76
49 77
49 78
49 80
49 82
49 83
49 84
49 85
49 86
49 87
49 92
49 93
49 94
49 95
49 97
49 110
50 51
50 52
50 53
50 54
50 55
50 56
50 57
50 58
50 59
50 60
50 61
50 62
50 63
50 64
50 65
50 66
50 68
50 69
50 70
50 71
50 73
50 74
50 76
50 77
50 78
50 80
50 82
50 83
50 84
50 85
50 86
50 87
50 92
50 93
50 94
50 95
50 97
50 110
51 52
51 53
51 54
51 55
51 56
51 57
51 58
51 59
51 60
51 61
51 62
51 63
51 64
51 65
51 66
51 68
51 69
51 70
51 71
51 73
51 74
51 76
51 77
51 78
51 80
51 82
51 83
51 84
51 85
51 86
51 87
51 92
51 93
51 94
51 95
51 97
51 110
52 53
52 54
52 55
52 56
52 57
52 58
52 59
52 60
52 61
52 62
52 63
52 64
52 65
52 66
52 68
52 69
52 70
52 71
52 73
52 74
52 76
52 77
52 78
52 80
52 82
52 83
52 84
52 85
52 86
52 87
52 92
52 93
52 94
52 95
52 97
52 110
53 54
53 55
53 56
53 57
53 58
53 59
53 60
53 61
53 62
53 63
53 64
53 65
53 66
53 68
53 69
53 70
53 71
53 73
53 74
53 76
53 77
53 78
53 80
53 82
53 83
53 84
53 85
53 86
53 87
53 92
53 93
53 94
53 95
53 97
53 110
54 55
54 56
54 57
54 58
54 59
54 60
54 61
54 62
54 63
54 64
54 65
54 66
54 68
54 69
54 70
54 71
54 73
54 74
54 76
54 77
54 78
54 80
54 82
54 83
54 84
54 85
54 86
54 87
54 92
54 93
54 94
54 95
54 97
54 110
55 56
55 57
55 58
55 59
55 60
55 61
55 62
55 63
55 64
55 65
55 66
55 68
55 69
55 70
55 71
55 73
55 74
55 76
55 77
55 78
55 80
55 82
55 83
55 84
55 85
55 86
55 87
55 92
55 93
55 94
55 95
55 97
55 110
56 57
56 58
56 59
56 60
56 61
56 62
56 63
56 64
56 65
56 66
56 68
56 69
56 70
56 71
56 73
56 74
56 76
56 77
56 78
56 80
56 82
56 83
56 84
56 85
56 86
56 87
56 92
56 93
56 94
56 95
56 97
56 110
57 58
57 59
57 60
57 61
57 62
57 63
57 64
57 65
57 66
57 68
57 69
57 70
57 71
57 73
57 74
57 76
57 77
57 78
57 80
57 82
57 83
57 84
57 85
57 86
57 87
57 92
57 93
57 94
57 95
57 97
57 110
58 59
58 60
58 61
58 62
58 63
58 64
58 65
58 66
58 68
58 69
58 70
58 71
58 73
58 74
58 76
58 77
58 78
58 80
58 82
58 83
58 84
58 85
58 86
58 87
58 92
58 93
58 94
58 95
58 97
58 110
59 60
59 61
59 62
59 63
59 64
59 65
59 66
59 68
59 69
59 70
59 71
59 73
59 74
59 76
59 77
59 78
59 80
59 82
59 83
59 84
59 85
59 86
59 87
59 92
59 93
59 94
59 95
59 97
59 110
60 61
60 62
60 63
60 64
60 65
60 66
60 68
60 69
60 70
60 71
60 73
60 74
60 76
60 77
60 78
60 80
60 82
60 83
60 84
60 85
60 86
60 87
60 92
60 93
60 94
60 95
60 97
60 110
61 62
61 63
61 64
61 65
61 66
61 68
61 69
61 70
61 71
61 73
61 74
61 76
61 77
61 78
61 80
61 82
61 83
61 84
61 85
61 86
61 87
61 92
61 93
61 94
61 95
61 97
61 110
62 63
62 64
62 65
62 66
62 68
62 69
62 70
62 71
62 73
62 74
62 76
62 77
62 78
62 80
62 82
62 83
62 84
62 85
62 86
62 87
62 92
62 93
62 94
62 95
62 97
62 110
63 64
63 65
63 66
63 68
63 69
63 70
63 71
63 73
63 74
63 76
63 77
63 78
63 80
63 82
63 83
63 84
63 85
63 86
63 87
63 92
63 93
63 94
63 95
63 97
63 110
64 65
64 66
64 68
64 69
64 70
64 71
64 73
64 74
64 76
64 77
64 78
64 80
64 82
64 83
64 84
64 85
64 86
64 87
64 92
64 93
64 94
64 95
64 97
64 110
65 66
65 68
65 69
65 70
65 71
65 73
65 74
65 76
65 77
65 78
65 80
65 82
65 83
65 84
65 85
65 86
65 87
65 92
65 93
65 94
65 95
65 97
65 110
66 68
66 69
66 70
66 71
66 73
66 74
66 76
66 77
66 78
66 80
66 82
66 83
66 84
66 85
66 86
66 87
66 92
66 93
66 94
66 95
66 97
66 110
68 69
68 70
68 71
68 73
68 74
68 76
68 77
68 78
68 80
68 82
68 83
68 84
68 85
68 86
68 87
68 92
68 93
68 94
68 95
68 97
69 70
69 71
69 73
69 74
69 76
69 77
69 78
69 80
69 82
69 83
69 84
69 85
69 86
69 87
69 92
69 93
69 94
69 95
69 97
70 71
70 73
70 74
70 76
70 77
70 78
70 80
70 82
70 83
70 84
70 85
70 86
70 87
70 92
70 93
70 94
70 95
70 97
71 73
71 76
71 78
71 82
71 83
71 84
71 85
71 86
71 87
71 110
71 243
71 737
72 89
72 96
72 99
72 103
72 112
72 125
72 131
72 145
72 146
72 147
72 161
72 191
72 193
72 194
72 195
72 198
72 200
72 203
72 221
72 232
72 374
72 380
73 76
73 78
73 82
73 83
73 84
73 85
73 86
73 87
73 98
73 110
73 443
74 77
74 80
74 92
74 93
74 94
74 95
74 97
74 171
74 176
75 107
75 135
75 138
75 159
75 160
75 163
75 167
75 168
75 169
75 795
75 801
76 78
76 82
76 83
76 84
76 85
76 86
76 87
76 110
77 80
77 92
77 93
77 94
77 95
77 97
77 171
77 360
77 371
78 82
78 83
78 84
78 85
78 86
78 87
78 110
79 90
79 152
79 198
79 276
79 285
79 346
79 948
80 92
80 93
80 94
80 95
80 97
80 287
80 532
81 99
81 116
81 118
81 119
81 132
81 141
81 150
81 186
81 272
81 278
81 288
81 308
81 324
81 439
81 462
81 474
81 671
81 679
81 837
82 83
82 84
82 85
82 86
82 87
83 84
83 85
83 86
83 87
84 85
84 86
84 87
85 86
85 87
86 87
88 101
88 184
88 210
88 285
88 302
88 326
88 338
88 348
88 350
88 377
88 407
88 441
88 444
88 571
88 604
88 659
88 665
88 808
88 832
88 834
89 103
89 105
89 125
89 131
89 145
89 146
89 191
89 193
89 194
89 195
89 200
89 203
89 270
89 289
89 362
89 518
89 533
90 119
90 134
90 158
90 186
90 189
90 206
90 213
90 216
90 276
90 335
90 342
90 346
90 489
90 493
91 122
91 232
91 291
91 332
91 378
91 427
91 485
91 539
91 566
91 713
91 781
92 93
92 94
92 95
92 97
93 94
93 95
93 97
94 95
94 97
95 97
96 99
96 103
96 112
96 125
96 138
96 147
96 152
96 196
96 244
96 281
96 305
96 309
96 320
98 110
98 142
98 143
98 338
98 384
98 414
98 443
98 448
98 903
99 112
99 116
99 118
99 125
99 147
99 196
99 244
99 281
99 305
99 309
99 320
100 104
100 113
100 121
100 129
100 140
100 153
100 166
100 182
100 241
100 247
100 345
100 669
100 761
101 143
101 155
101 220
101 239
101 256
101 291
101 316
101 332
101 405
101 477
101 658
101 695
102 119
102 143
102 198
102 204
102 210
102 296
102 311
102 333
102 368
102 423
102 464
102 821
102 859
103 125
103 131
103 145
103 146
103 191
103 193
103 194
103 195
103 200
103 203
103 216
103 304
103 503
104 113
104 129
104 133
104 140
104 154
104 161
104 182
104 221
104 241
104 283
104 373
104 408
104 512
104 536
105 128
105 131
105 132
105 139
105 184
105 209
105 251
105 270
105 303
105 330
105 358
105 418
105 525
105 685
105 961
106 295
106 418
106 825
107 114
107 126
107 135
107 153
107 159
107 160
107 163
107 167
107 168
107 169
107 207
107 249
107 488
108 120
108 133
108 137
108 143
108 156
108 179
108 249
108 323
108 352
108 364
108 366
108 537
108 546
108 605
108 702
109 120
109 123
109 172
109 199
109 214
109 255
109 299
109 321
109 406
109 556
109 573
109 612
109 623
109 629
109 653
109 684
109 717
109 841
109 850
109 982
110 443
111 157
111 297
111 315
111 325
111 417
111 635
111 649
111 660
111 810
112 116
112 146
112 147
112 157
112 196
112 209
112 244
112 281
112 305
112 309
112 320
112 380
112 535
112 780
112 895
113 129
113 140
113 153
113 164
113 182
113 241
113 257
113 515
113 662
113 670
114 181
114 205
114 249
114 301
114 313
114 343
114 463
114 478
114 521
114 550
114 634
115 136
115 143
115 180
115 211
115 227
115 603
116 118
116 119
116 137
116 141
116 144
116 158
116 196
116 272
116 308
116 439
116 462
116 600
116 652
116 679
116 837
117 162
117 314
117 355
117 356
117 361
117 365
117 370
117 410
117 470
117 596
117 756
117 799
117 956
118 141
118 145
118 150
118 158
118 262
118 278
118 363
118 400
118 439
118 447
118 474
118 671
118 848
119 134
119 137
119 171
119 176
119 184
119 212
119 233
119 307
119 530
119 570
119 680
120 199
120 214
120 220
120 223
120 255
120 273
120 321
120 337
120 487
120 538
120 546
120 573
120 594
120 595
120 623
120 705
120 753
120 777
120 852
121 144
121 147
121 153
121 221
121 247
121 281
121 283
121 374
121 510
121 624
121 638
121 669
122 123
122 155
122 170
122 208
122 258
122 316
122 357
122 375
122 427
122 477
122 633
122 701
122 764
122 771
122 829
122 857
123 223
123 265
123 299
123 520
123 556
123 597
123 653
123 717
123 763
123 774
123 796
123 817
124 226
124 252
124 329
124 499
124 543
124 551
125 131
125 145
125 146
125 191
125 193
125 194
125 195
125 200
125 203
125 382
126 152
126 175
126 178
126 189
126 207
126 231
126 286
126 334
126 353
126 355
126 356
126 386
126 434
126 470
126 495
126 607
126 864
127 263
127 387
127 390
127 437
127 451
127 522
127 637
127 690
127 692
127 722
127 732
127 769
128 525
128 824
128 827
128 872
128 911
128 915
129 140
129 154
129 182
129 201
129 283
129 373
129 408
129 512
129 536
130 215
130 224
130 280
130 399
130 492
130 496
130 586
130 735
131 145
131 146
131 191
131 193
131 194
131 195
131 200
131 203
131 209
131 251
131 270
132 148
132 184
132 272
132 351
132 563
132 590
132 661
132 962
133 161
133 223
133 376
133 595
133 601
133 751
133 806
134 176
134 570
135 159
135 160
135 163
135 167
135 168
135 169
136 224
136 227
136 280
136 337
136 617
136 924
137 143
137 144
137 156
137 179
137 181
137 233
137 319
137 377
137 439
137 528
138 152
138 154
138 286
138 795
138 801
138 979
138 985
139 184
139 188
139 218
139 238
139 250
139 294
139 303
139 304
139 332
139 344
139 464
139 480
140 183
140 209
140 241
140 283
140 354
140 373
140 498
141 145
141 150
141 158
141 247
141 308
141 345
141 400
141 447
141 462
142 143
142 156
142 325
142 412
142 448
142 540
142 599
142 867
143 156
143 220
143 233
143 319
143 323
143 439
143 537
143 605
144 216
144 302
144 501
144 572
144 638
144 750
144 849
145 146
145 150
145 191
145 193
145 194
145 195
145 200
145 203
145 848
146 191
146 193
146 194
146 195
146 200
146 203
147 196
147 221
147 244
147 281
147 305
147 309
147 320
147 669
148 229
148 248
148 391
148 409
148 413
148 416
148 420
148 422
148 429
148 438
148 905
149 152
149 162
149 185
149 253
149 286
149 310
149 328
149 346
149 351
149 385
149 433
149 481
149 495
149 588
149 674
149 694
149 865
150 158
150 186
150 278
150 288
150 318
150 342
150 460
150 474
150 609
151 174
151 204
151 215
151 246
151 254
151 282
151 306
151 421
151 424
151 454
151 547
151 560
151 655
151 682
151 710
151 814
151 822
152 162
152 175
152 210
152 268
152 285
152 300
152 310
152 334
152 355
152 382
153 221
153 270
153 274
153 281
153 283
153 295
153 330
153 358
153 624
153 669
153 842
153 999
154 182
154 185
154 187
154 241
155 164
155 170
155 240
155 258
155 316
155 357
155 375
155 477
155 658
155 764
155 802
155 829
155 857
156 188
156 319
156 323
156 377
156 412
156 439
156 448
156 475
156 537
156 605
156 820
156 897
157 180
157 181
157 293
157 417
157 905
158 183
158 206
158 237
158 262
158 278
158 327
158 342
158 452
158 679
159 160
159 163
159 167
159 168
159 169
160 163
160 167
160 168
160 169
161 223
161 231
161 286
161 292
161 331
161 806
162 177
162 247
162 325
162 445
162 493
163 167
163 168
163 169
164 179
164 257
164 316
164 352
164 528
164 563
165 217
165 236
165 317
165 388
165 396
165 508
165 593
165 729
166 279
166 336
166 345
166 370
166 400
166 479
166 677
166 761
166 826
167 168
167 169
168 169
170 258
170 292
170 357
170 381
170 392
170 476
170 572
170 633
170 771
170 823
170 969
171 176
171 177
171 239
171 284
171 289
171 360
171 371
171 555
171 685
171 831
172 199
172 214
172 299
172 347
172 612
172 629
172 684
172 785
172 815
172 946
173 266
173 277
173 359
173 372
173 383
174 204
174 246
174 282
174 306
174 421
174 424
174 454
174 655
174 682
174 710
174 814
174 822
175 300
175 334
175 353
175 355
175 434
175 967
176 233
176 262
176 307
176 530
176 680
177 230
177 252
177 288
177 360
177 371
177 928
177 977
178 222
178 223
178 286
178 353
178 386
178 395
178 442
178 450
178 455
178 461
178 470
178 484
178 607
178 760
178 864
179 343
179 352
179 364
179 528
179 563
179 691
180 211
180 331
180 415
181 205
181 218
181 238
181 284
181 293
181 478
181 501
181 509
181 579
181 711
182 201
182 373
182 408
182 512
182 536
183 206
183 209
183 354
183 447
183 452
183 548
184 188
184 210
184 272
184 287
184 304
184 344
184 407
184 431
184 441
185 187
185 253
185 328
185 385
185 588
185 919
185 927
186 298
186 318
186 342
186 414
186 419
186 609
186 679
187 190
187 289
187 293
187 317
187 388
187 686
188 218
188 250
188 294
188 303
188 304
188 332
188 344
188 820
189 228
189 231
189 252
189 335
189 369
189 480
189 667
189 931
190 293
190 317
190 324
190 468
190 472
190 508
190 565
190 643
190 686
190 718
191 193
191 194
191 195
191 200
191 203
192 278
192 298
192 608
192 666
192 668
192 683
192 720
192 787
192 788
192 856
192 892
193 194
193 195
193 200
193 203
194 195
194 200
194 203
195 200
195 203
196 244
196 281
196 305
196 309
196 320
196 462
196 535
196 600
196 652
197 222
197 255
197 300
197 376
197 428
197 602
197 619
198 276
198 859
199 214
199 255
199 299
199 321
199 337
199 785
200 203
201 226
201 341
201 374
202 266
202 476
202 648
204 246
204 282
204 306
204 333
204 421
204 424
204 454
204 655
204 682
204 710
204 814
204 822
205 249
205 521
205 550
205 634
206 216
206 276
206 441
206 452
206 513
207 574
207 584
207 641
207 660
208 334
208 366
208 412
208 506
208 968
209 251
209 270
209 287
209 354
209 780
210 311
210 351
210 368
210 438
210 728
211 603
212 243
212 294
212 307
212 319
212 323
212 471
212 557
212 564
212 828
212 830
212 902
212 917
212 921
213 379
213 577
213 645
213 672
213 805
213 904
214 223
214 255
214 299
214 321
214 538
214 573
214 595
214 623
214 653
214 705
214 753
215 224
215 242
215 254
215 280
215 399
215 436
215 585
215 714
215 804
216 263
216 287
216 387
216 489
216 503
216 929
217 317
217 381
217 397
217 457
217 458
218 294
218 303
218 453
218 483
219 301
219 328
219 347
219 394
219 463
219 505
219 551
219 561
220 239
220 240
220 389
220 405
220 546
221 283
221 295
221 418
222 341
222 395
222 442
222 450
222 455
222 461
222 484
223 286
223 538
223 611
223 741
223 774
223 817
223 913
224 234
224 280
224 337
224 436
224 585
224 735
225 273
225 326
225 375
225 506
225 725
225 789
225 887
225 991
226 680
226 973
227 494
227 581
227 617
227 924
228 231
228 252
228 531
228 699
228 881
229 248
229 391
229 409
229 413
229 416
229 420
229 422
229 429
229 438
230 234
230 238
230 242
230 252
231 519
231 699
232 380
232 539
233 272
233 307
233 319
233 340
233 402
233 530
233 570
234 238
234 242
234 740
235 260
235 277
235 382
235 562
235 569
235 673
235 708
235 733
235 768
235 778
235 833
235 878
235 916
236 396
236 508
236 531
236 593
236 729
236 807
236 860
236 898
237 284
237 342
237 548
237 567
238 284
238 480
238 711
239 272
239 291
239 302
239 360
240 316
240 389
240 497
240 861
240 938
241 314
241 930
242 740
243 274
243 738
243 828
243 947
244 281
244 305
244 309
244 320
245 322
245 614
245 706
245 715
245 739
245 758
245 775
246 296
246 306
246 333
246 464
246 547
246 599
246 640
246 773
246 891
247 445
247 544
248 391
248 409
248 413
248 416
248 420
248 422
248 429
249 521
250 332
250 350
250 398
250 405
250 974
250 975
251 270
251 330
252 329
252 491
252 543
252 675
252 770
253 328
253 385
253 588
253 862
253 868
254 296
254 843
255 321
255 404
256 258
256 291
256 292
256 566
257 274
257 516
257 583
258 357
259 475
259 513
259 622
259 649
259 730
259 762
259 782
259 847
259 870
259 908
260 277
260 382
260 562
260 569
260 708
260 768
260 778
260 818
261 264
261 488
261 582
261 591
261 700
261 794
261 803
261 873
262 278
262 414
262 502
262 935
263 350
263 384
263 387
263 398
263 437
263 451
263 503
263 559
263 922
264 358
264 591
264 648
264 723
264 736
264 791
264 794
264 803
264 952
265 352
265 393
265 575
265 783
265 835
265 893
266 277
266 359
266 372
266 383
266 476
267 390
267 473
267 523
267 704
268 271
268 317
268 388
268 541
269 466
269 549
269 618
269 678
269 681
269 793
269 812
269 844
270 810
271 276
271 486
271 696
272 438
272 661
272 972
273 349
273 378
273 448
274 516
274 583
274 738
274 912
274 934
275 378
275 499
275 701
276 441
276 449
276 452
276 486
276 696
277 359
277 372
277 383
277 562
277 569
278 327
278 500
278 671
279 336
279 370
279 400
279 479
279 677
279 826
280 337
280 399
280 436
280 735
280 765
281 305
281 309
281 320
282 432
283 373
284 501
284 509
284 711
284 877
285 444
286 741
286 760
287 304
287 532
288 297
288 426
288 474
289 444
289 518
289 555
289 831
290 367
290 446
291 427
291 713
292 331
292 526
292 566
292 592
293 508
293 686
294 303
294 453
294 483
294 557
294 564
294 727
294 830
295 297
295 330
295 403
295 418
295 825
295 883
295 926
296 333
296 453
296 640
296 646
296 744
296 998
297 426
298 318
298 322
298 411
298 414
298 460
298 502
298 510
298 529
299 406
299 520
299 653
299 717
299 796
299 798
300 602
301 328
301 394
301 463
301 478
301 505
301 990
302 348
302 489
302 638
302 750
302 849
303 333
303 453
303 483
304 344
304 464
304 483
304 657
304 727
304 909
305 309
305 320
306 547
306 843
307 323
307 340
307 402
307 530
307 545
308 462
309 320
310 346
310 351
310 433
310 445
310 481
310 496
310 544
311 312
311 368
311 438
311 575
311 728
312 500
313 521
313 587
313 593
314 338
314 519
314 596
314 604
314 731
314 779
314 930
315 449
315 504
315 553
315 766
316 375
316 477
316 658
316 802
316 829
317 388
317 541
318 460
319 439
319 634
321 406
321 797
322 529
322 706
322 726
323 537
323 605
323 917
324 380
324 468
324 718
324 743
324 786
324 981
325 417
325 465
325 970
326 375
326 632
326 659
326 725
326 747
326 749
328 385
328 588
329 449
329 866
330 418
331 357
331 415
331 526
332 405
333 464
333 640
333 821
334 355
334 366
334 506
336 370
336 400
336 479
336 677
338 384
338 490
338 604
339 408
339 459
339 558
339 621
339 627
339 654
339 819
340 402
340 466
340 545
340 610
340 784
340 993
342 609
343 364
343 790
344 402
344 772
345 761
345 792
345 871
346 351
346 481
346 674
346 694
347 394
347 505
347 556
347 561
347 940
347 995
348 350
348 407
348 688
348 695
348 712
348 716
348 752
348 809
349 392
349 397
349 448
349 457
349 920
350 559
350 695
351 438
351 481
352 364
352 393
352 528
352 563
352 628
353 434
355 742
356 365
356 756
356 799
357 415
357 526
357 771
358 418
358 589
359 372
359 383
360 371
360 685
360 928
361 470
361 596
362 440
362 533
362 636
362 639
365 410
366 506
367 446
367 524
367 880
368 423
368 435
368 553
368 894
369 417
369 504
369 667
369 734
369 931
370 410
370 479
370 868
371 501
371 509
371 754
371 855
371 937
372 383
373 512
373 536
374 380
375 477
375 725
375 764
377 471
377 552
377 559
377 676
378 485
379 421
379 424
379 577
379 645
379 836
379 904
380 718
381 401
381 458
381 473
381 511
381 584
382 574
382 778
384 387
384 398
384 437
384 451
385 386
385 588
385 862
385 988
386 470
386 642
386 874
386 950
386 966
387 398
387 437
387 451
387 922
388 541
389 497
390 571
390 637
390 690
390 692
390 704
391 409
391 413
391 416
391 420
392 457
392 664
393 425
393 628
394 463
394 505
394 551
394 561
395 442
395 450
395 455
395 461
395 484
396 531
396 593
396 807
396 860
396 879
397 457
397 491
397 939
398 405
398 437
398 451
400 671
400 677
401 432
401 473
402 545
402 772
402 784
403 418
403 598
403 613
403 615
403 663
404 415
404 813
404 907
404 987
405 695
406 520
406 798
406 841
406 850
407 472
407 490
407 716
407 809
408 459
408 558
408 627
409 413
409 416
409 420
410 869
410 900
411 460
411 502
411 510
411 529
412 537
412 650
412 745
413 416
413 420
415 526
416 420
417 504
417 734
418 825
419 502
419 788
421 424
421 454
421 560
422 429
424 454
424 560
425 446
425 554
425 580
425 628
425 746
425 748
425 767
426 997
427 713
428 582
428 601
428 630
430 578
430 839
431 626
431 657
431 800
431 965
432 534
432 955
433 445
433 544
433 865
434 480
435 469
435 553
435 576
435 866
435 890
436 585
436 765
437 451
440 557
440 636
440 776
441 559
442 450
442 455
442 461
442 484
444 989
445 544
446 554
446 983
448 897
448 903
449 581
449 647
449 707
450 455
450 461
450 484
453 646
454 560
455 461
455 484
456 467
456 482
456 631
456 687
456 689
456 759
456 811
457 491
457 703
457 920
458 511
458 523
459 558
459 621
459 627
459 654
460 502
460 510
461 484
462 600
462 652
463 478
463 505
464 480
464 821
465 949
466 610
466 793
466 812
467 759
467 811
468 743
468 786
469 576
469 845
469 890
471 552
471 676
472 490
472 565
472 643
475 762
475 782
475 820
475 888
475 918
477 658
481 674
481 694
481 936
482 578
482 599
482 631
482 687
482 689
482 773
483 657
483 727
483 909
486 696
487 594
487 854
489 503
491 675
491 770
492 496
492 586
493 650
494 581
494 697
495 574
495 607
496 586
496 724
499 543
501 509
501 754
504 734
504 766
505 561
506 789
507 616
507 619
507 755
507 813
507 951
508 729
509 745
509 754
511 542
511 846
511 875
512 536
513 651
513 954
514 720
515 662
515 670
516 583
516 597
517 693
517 721
517 757
517 889
517 933
517 980
518 620
518 625
518 644
518 656
519 596
520 796
520 798
522 722
522 732
524 651
524 880
525 672
525 932
526 923
527 568
528 563
530 680
531 807
531 898
533 639
535 600
535 895
537 605
538 546
538 753
538 777
539 566
539 781
540 599
540 867
542 875
543 675
545 784
546 777
548 567
549 618
549 678
549 681
549 844
550 634
552 676
554 899
554 901
554 971
555 831
556 940
557 776
558 627
562 569
564 830
564 863
564 914
565 643
565 959
566 781
571 665
572 633
572 823
573 623
573 797
575 893
576 845
577 645
578 839
580 746
580 748
580 767
580 906
581 647
581 707
582 590
582 601
582 630
584 641
585 714
585 804
586 667
586 724
587 597
590 601
591 698
592 876
592 910
592 953
592 996
593 879
594 854
595 705
595 984
596 896
598 613
598 615
598 663
599 773
600 652
601 751
604 779
604 808
607 611
608 666
608 668
608 683
611 913
611 941
612 684
613 615
613 663
614 758
615 663
616 755
618 678
618 681
619 813
620 625
620 644
620 656
621 654
622 730
622 847
622 908
625 644
625 656
626 992
631 687
631 689
632 747
632 749
633 823
635 978
637 690
637 692
640 891
641 944
641 964
642 838
642 858
642 874
644 656
646 744
647 707
649 660
650 745
651 958
655 682
657 800
662 670
664 665
664 731
664 994
666 668
666 683
667 724
668 683
672 805
673 733
674 694
678 681
687 689
688 712
688 752
690 692
693 721
693 731
693 757
700 702
700 873
708 768
709 840
709 846
709 886
712 752
714 804
715 739
715 775
716 809
721 757
722 732
723 791
723 884
730 800
733 916
739 775
741 760
743 786
746 748
747 749
756 799
759 811
762 782
767 906
774 817
787 788
789 887
791 884
793 812
794 803
795 801
816 882
824 872
827 851
827 885
833 878
834 986
838 858
840 886
851 885
853 870
855 937
861 938
863 914
869 900
876 910
883 926
888 918
889 933
894 943
896 936
899 901
902 921
911 915
919 927
923 963
932 957
939 960
